peakDumbCharging = 14800; 
Machine = anon_enum(16); 
machineSpeed = [3700,3700,3700,3700,3700,3700,3700,3700,3700,3700,3700,3700,3700,3700,3700,3700]; 
machineLoad = [3700,3700,3700,3700,3700,3700,3700,3700,3700,3700,3700,3700,3700,3700,3700,3700]; 
Car = anon_enum(17); 
demandCar = [9880,16000,16640,14560,11160,1880,6920,6960,24480,2720,27800,31560,4280,10360,5000,5600,15640]; 
arrivalCar = [72,67,63,61,59,58,55,55,46,45,41,39,39,38,36,32,26]; 
departureCar = [76,72,69,67,65,62,60,58,60,48,55,53,42,42,39,35,33]; 
